NAME          
ROWS
 N  OBJ
 L  c1
 L  c2
 L  c3
 L  c4
COLUMNS
    MARKER    'MARKER'                 'INTORG'
    x[1]      c1        901
    x[1]      c2        140
    x[1]      c3        370
    x[1]      c4        390
    x[1]      OBJ       -750
    x[2]      c1        654
    x[2]      c2        118
    x[2]      c3        249
    x[2]      c4        789
    x[2]      OBJ       -815
    x[3]      c1        305
    x[3]      c2        623
    x[3]      c3        192
    x[3]      c4        662
    x[3]      OBJ       -45
    x[4]      c1        179
    x[4]      c2        263
    x[4]      c3        370
    x[4]      c4        655
    x[4]      OBJ       -284
    x[5]      c1        884
    x[5]      c2        587
    x[5]      c3        534
    x[5]      c4        765
    x[5]      OBJ       -214
    x[6]      c1        660
    x[6]      c2        771
    x[6]      c3        587
    x[6]      c4        367
    x[6]      OBJ       -332
    x[7]      c1        12
    x[7]      c2        238
    x[7]      c3        505
    x[7]      c4        500
    x[7]      OBJ       -320
    x[8]      c1        360
    x[8]      c2        68
    x[8]      c3        93
    x[8]      c4        715
    x[8]      OBJ       -457
    x[9]      c1        743
    x[9]      c2        302
    x[9]      c3        278
    x[9]      c4        249
    x[9]      OBJ       -242
    x[10]     c1        196
    x[10]     c2        868
    x[10]     c3        732
    x[10]     c4        834
    x[10]     OBJ       -956
    x[11]     c1        442
    x[11]     c2        653
    x[11]     c3        887
    x[11]     c4        908
    x[11]     OBJ       -362
    x[12]     c1        430
    x[12]     c2        220
    x[12]     c3        793
    x[12]     c4        202
    x[12]     OBJ       -83
    x[13]     c1        893
    x[13]     c2        123
    x[13]     c3        471
    x[13]     c4        189
    x[13]     OBJ       -941
    x[14]     c1        246
    x[14]     c2        231
    x[14]     c3        865
    x[14]     c4        84
    x[14]     OBJ       -773
    x[15]     c1        590
    x[15]     c2        205
    x[15]     c3        632
    x[15]     c4        19
    x[15]     OBJ       -521
    x[16]     c1        11
    x[16]     c2        296
    x[16]     c3        368
    x[16]     c4        592
    x[16]     OBJ       -967
    x[17]     c1        696
    x[17]     c2        634
    x[17]     c3        404
    x[17]     c4        53
    x[17]     OBJ       -927
    x[18]     c1        143
    x[18]     c2        890
    x[18]     c3        256
    x[18]     c4        741
    x[18]     OBJ       -824
    x[19]     c1        319
    x[19]     c2        521
    x[19]     c3        660
    x[19]     c4        799
    x[19]     OBJ       -273
    x[20]     c1        300
    x[20]     c2        535
    x[20]     c3        589
    x[20]     c4        941
    x[20]     OBJ       -574
    x[21]     c1        3
    x[21]     c2        569
    x[21]     c3        108
    x[21]     c4        177
    x[21]     OBJ       -195
    x[22]     c1        278
    x[22]     c2        890
    x[22]     c3        984
    x[22]     c4        718
    x[22]     OBJ       -549
    x[23]     c1        230
    x[23]     c2        824
    x[23]     c3        509
    x[23]     c4        255
    x[23]     OBJ       -736
    x[24]     c1        109
    x[24]     c2        160
    x[24]     c3        25
    x[24]     c4        389
    x[24]     OBJ       -633
    x[25]     c1        328
    x[25]     c2        836
    x[25]     c3        242
    x[25]     c4        272
    x[25]     OBJ       -219
    x[26]     c1        4
    x[26]     c2        443
    x[26]     c3        173
    x[26]     c4        240
    x[26]     OBJ       -484
    x[27]     c1        708
    x[27]     c2        499
    x[27]     c3        100
    x[27]     c4        3
    x[27]     OBJ       -609
    x[28]     c1        540
    x[28]     c2        427
    x[28]     c3        690
    x[28]     c4        840
    x[28]     OBJ       -610
    x[29]     c1        543
    x[29]     c2        588
    x[29]     c3        261
    x[29]     c4        887
    x[29]     OBJ       -905
    x[30]     c1        174
    x[30]     c2        56
    x[30]     c3        476
    x[30]     c4        633
    x[30]     OBJ       -981
    x[31]     c1        150
    x[31]     c2        416
    x[31]     c3        14
    x[31]     c4        559
    x[31]     OBJ       -985
    x[32]     c1        723
    x[32]     c2        563
    x[32]     c3        560
    x[32]     c4        791
    x[32]     OBJ       -215
    x[33]     c1        786
    x[33]     c2        190
    x[33]     c3        724
    x[33]     c4        563
    x[33]     OBJ       -160
    x[34]     c1        641
    x[34]     c2        44
    x[34]     c3        285
    x[34]     c4        732
    x[34]     OBJ       -261
    x[35]     c1        333
    x[35]     c2        395
    x[35]     c3        860
    x[35]     c4        542
    x[35]     OBJ       -469
RHS
    rhs       c1        7257
    rhs       c2        7593
    rhs       c3        7923
    rhs       c4        9028
RANGES
BOUNDS
 BV bounds    x[1]
 BV bounds    x[2]
 BV bounds    x[3]
 BV bounds    x[4]
 BV bounds    x[5]
 BV bounds    x[6]
 BV bounds    x[7]
 BV bounds    x[8]
 BV bounds    x[9]
 BV bounds    x[10]
 BV bounds    x[11]
 BV bounds    x[12]
 BV bounds    x[13]
 BV bounds    x[14]
 BV bounds    x[15]
 BV bounds    x[16]
 BV bounds    x[17]
 BV bounds    x[18]
 BV bounds    x[19]
 BV bounds    x[20]
 BV bounds    x[21]
 BV bounds    x[22]
 BV bounds    x[23]
 BV bounds    x[24]
 BV bounds    x[25]
 BV bounds    x[26]
 BV bounds    x[27]
 BV bounds    x[28]
 BV bounds    x[29]
 BV bounds    x[30]
 BV bounds    x[31]
 BV bounds    x[32]
 BV bounds    x[33]
 BV bounds    x[34]
 BV bounds    x[35]
ENDATA
